NAME : instance_3
COMMENT : Converted from simplified format
TYPE : CVRP
DIMENSION : 15
EDGE_WEIGHT_TYPE : EUC_2D
CAPACITY : 33
NODE_COORD_SECTION
1 0 0
2 44 2
3 54 70
4 30 53
5 22 66
6 12 83
7 87 25
8 18 34
9 64 66
10 56 46
11 30 45
12 41 8
13 68 45
14 100 53
15 23 20
DEMAND_SECTION
1 0
2 4
3 7
4 2
5 5
6 8
7 2
8 9
9 5
10 6
11 1
12 3
13 3
14 3
15 8
DEPOT_SECTION
1
EOF
